100 77859

 386 132
837 496
950 107
806 346
378 149
789 637
352 950
168 997
34 376
386 600
904 857
239 118
207 690
970 409
26 207
786 403
322 76
38 696
918 253
140 312
552 122
275 865
66 494
50 573
116 570
72 411
761 193
486 746
343 128
419 104
929 711
911 209
716 307
885 476
320 450
382 709
614 624
624 645
482 715
401 293
987 323
822 438
435 308
728 985
270 815
101 165
353 6
403 43
17 245
815 115
360 534
581 858
74 737
175 216
890 400
609 508
951 811
999 840
372 910
299 510
859 695
999 112
630 566
796 249
782 432
356 635
575 257
834 53
689 11
22 23
337 9
145 111
233 240
906 222
37 987
220 307
310 128
617 546
535 858
219 679
165 297
237 562
503 715
272 729
948 667
464 871
59 871
730 579
329 430
654 642
280 819
571 6
773 992
929 183
262 471
335 873
465 226
928 477
902 133
90 396
